data/CVRPLIB/Vrp-Set-XML100/instances/XML100_3113_17.vrp
NAME : XML100_3113_17
COMMENT : Generated by Queiroga, Sadykov, Uchoa, and Vidal (2021)
TYPE : CVRP
DIMENSION : 101
EDGE_WEIGHT_TYPE : EUC_2D
CAPACITY : 9
NODE_COORD_SECTION
1    0    0   
2    331  359 
3    304  680 
4    528  810 
5    482  137 
6    959  105 
7    675  563 
8    213  369 
9    169  344 
10   272  818 
11   674  786 
12   993  218 
13   215  587 
14   597  252 
15   372  349 
16   374  341 
17   779  975 
18   921  931 
19   377  745 
20   747  365 
21   57   670 
22   560  612 
23   69   390 
24   662  46  
25   524  80  
26   28   493 
27   730  409 
28   792  429 
29   287  995 
30   269  170 
31   744  802 
32   502  398 
33   98   812 
34   335  751 
35   873  712 
36   749  399 
37   238  973 
38   979  623 
39   814  154 
40   150  200 
41   123  766 
42   276  817 
43   728  63  
44   38   782 
45   241  947 
46   414  470 
47   7    31  
48   322  538 
49   165  933 
50   495  671 
51   966  899 
52   266  568 
53   843  250 
54   559  83  
55   164  991 
56   236  903 
57   655  342 
58   200  412 
59   874  914 
60   399  349 
61   512  727 
62   465  883 
63   617  820 
64   568  476 
65   735  819 
66   93   607 
67   55   105 
68   930  32  
69   221  474 
70   447  904 
71   680  565 
72   586  626 
73   571  511 
74   797  715 
75   130  263 
76   716  207 
77   406  959 
78   392  683 
79   955  70  
80   169  695 
81   66   151 
82   463  720 
83   461  448 
84   379  91  
85   453  816 
86   799  791 
87   14   616 
88   755  83  
89   930  126 
90   85   420 
91   690  725 
92   150  352 
93   163  738 
94   707  409 
95   944  290 
96   379  863 
97   329  146 
98   314  727 
99   823  986 
100  275  725 
101  644  32  
DEMAND_SECTION
1    0   
2    1   
3    1   
4    1   
5    1   
6    1   
7    1   
8    1   
9    1   
10   1   
11   1   
12   1   
13   1   
14   1   
15   1   
16   1   
17   1   
18   1   
19   1   
20   1   
21   1   
22   1   
23   1   
24   1   
25   1   
26   1   
27   1   
28   1   
29   1   
30   1   
31   1   
32   1   
33   1   
34   1   
35   1   
36   1   
37   1   
38   1   
39   1   
40   1   
41   1   
42   1   
43   1   
44   1   
45   1   
46   1   
47   1   
48   1   
49   1   
50   1   
51   1   
52   1   
53   1   
54   1   
55   1   
56   1   
57   1   
58   1   
59   1   
60   1   
61   1   
62   1   
63   1   
64   1   
65   1   
66   1   
67   1   
68   1   
69   1   
70   1   
71   1   
72   1   
73   1   
74   1   
75   1   
76   1   
77   1   
78   1   
79   1   
80   1   
81   1   
82   1   
83   1   
84   1   
85   1   
86   1   
87   1   
88   1   
89   1   
90   1   
91   1   
92   1   
93   1   
94   1   
95   1   
96   1   
97   1   
98   1   
99   1   
100  1   
101  1   
DEPOT_SECTION
1
-1
EOF
