data/CVRPLIB/Vrp-Set-XML100/solutions/XML100_3113_17.sol
Route #1: 46
Route #2: 27 37 34 50 17 58 98 16 62
Route #3: 68 51 2 99 97 33 18 77 47
Route #4: 21 71 90 10 64 30 85 73 72
Route #5: 12 41 9 55 44 28 36 54 48
Route #6: 25 86 20 43 32 40 92 79 65
Route #7: 38 67 78 5 88 11 94 52 75
Route #8: 83 24 53 100 23 42 87 4 96
Route #9: 29 15 14 59 31 82 45 1 39
Route #10: 22 89 57 7 8 91 74 80 66
Route #11: 49 81 60 3 84 61 69 76 95
Route #12: 13 56 19 35 26 93 70 6 63
Cost 21763
